tsp_instances/TSP50/instance6.tsp
NODE_COORD_SECTION
0 53 130
1 124 65
2 179 131
3 40 48
4 108 101
5 188 12
6 164 73
7 176 73
8 141 78
9 186 183
10 118 165
11 95 143
12 177 6
13 58 106
14 177 71
15 83 111
16 105 25
17 10 82
18 18 19
19 73 24
20 169 14
21 47 124
22 116 112
23 68 183
24 131 71
25 121 107
26 43 137
27 141 87
28 64 148
29 176 124
30 18 7
31 133 150
32 17 172
33 83 71
34 173 84
35 21 198
36 0 195
37 63 133
38 184 81
39 136 57
40 120 54
41 72 108
42 160 100
43 92 149
44 172 153
45 139 94
46 52 93
47 136 170
48 65 176
49 16 171
