tsp_instances/TSP50/instance6.opt.tour
TOUR_SECTION
1
22
27
50
33
37
36
24
49
29
44
12
11
32
48
10
45
3
30
43
35
39
8
15
7
6
13
21
40
41
2
25
9
28
46
26
23
5
34
17
20
31
19
4
18
47
14
42
16
38
-1